c Reduced graph for p19 generated by Cyril Grelier
p edge 36 156
e 1 4
e 1 6
e 1 8
e 1 10
e 1 12
e 1 14
e 1 17
e 1 18
e 2 3
e 2 5
e 2 7
e 2 9
e 2 11
e 2 13
e 2 19
e 2 20
e 3 5
e 3 7
e 3 9
e 3 11
e 3 13
e 3 26
e 3 34
e 4 6
e 4 8
e 4 10
e 4 12
e 4 14
e 4 25
e 4 31
e 5 7
e 5 9
e 5 11
e 5 13
e 5 22
e 5 30
e 6 8
e 6 10
e 6 12
e 6 14
e 6 21
e 6 29
e 7 9
e 7 11
e 7 13
e 7 28
e 7 33
e 8 10
e 8 12
e 8 14
e 8 27
e 8 32
e 9 11
e 9 13
e 9 17
e 9 24
e 9 25
e 9 29
e 9 32
e 9 36
e 10 12
e 10 14
e 10 19
e 10 23
e 10 26
e 10 30
e 10 33
e 10 35
e 11 13
e 11 15
e 11 35
e 12 14
e 12 16
e 12 36
e 13 16
e 13 18
e 13 21
e 13 23
e 13 27
e 13 31
e 14 15
e 14 20
e 14 22
e 14 24
e 14 28
e 14 34
e 15 20
e 15 22
e 15 24
e 15 28
e 15 34
e 15 35
e 16 18
e 16 21
e 16 23
e 16 27
e 16 31
e 16 36
e 17 18
e 17 24
e 17 25
e 17 29
e 17 32
e 17 36
e 18 21
e 18 23
e 18 27
e 18 31
e 19 20
e 19 23
e 19 26
e 19 30
e 19 33
e 19 35
e 20 22
e 20 24
e 20 28
e 20 34
e 21 23
e 21 27
e 21 29
e 21 31
e 22 24
e 22 28
e 22 30
e 22 34
e 23 26
e 23 27
e 23 30
e 23 31
e 23 33
e 23 35
e 24 25
e 24 28
e 24 29
e 24 32
e 24 34
e 24 36
e 25 29
e 25 31
e 25 32
e 25 36
e 26 30
e 26 33
e 26 34
e 26 35
e 27 31
e 27 32
e 28 33
e 28 34
e 29 32
e 29 36
e 30 33
e 30 35
e 32 36
e 33 35
